p cnf 93 89
-1 82 0 
-2 75 82 0 
-3 82 0 
-4 74 82 0 
-5 23 83 0 
-6 -7 -8 25 36 44 49 61 71 79 82 0 
-9 73 82 0 
-10 84 -12 -29 -39 -47 0 
-11 -6 82 0 
-12 29 39 47 -13 82 0 
-14 32 40 59 -15 82 0 
-16 37 82 0 
-17 35 55 76 82 0 
-18 82 0 
-19 85 0 
-20 85 0 
-14 32 40 59 85 0 
-16 37 -21 22 26 46 80 82 0 
-14 32 40 59 -22 21 26 46 80 82 0 
-23 5 -24 -16 37 -13 82 0 
-25 8 36 44 49 61 71 79 -18 82 0 
-26 21 22 46 80 82 0 
-22 21 26 46 80 82 0 
-27 86 0 
-14 32 40 59 -28 82 0 
-14 32 40 59 -18 82 0 
-29 12 39 47 82 0 
-30 82 0 
-31 82 0 
-32 14 40 59 82 0 
-33 72 82 0 
-34 -18 82 0 
-35 17 55 76 82 0 
-36 8 25 44 49 61 71 79 -18 82 0 
-37 16 -22 21 26 46 80 82 0 
-23 5 -37 16 -38 82 0 
-23 5 -39 12 29 47 -6 82 0 
-39 12 29 47 -40 14 32 59 85 0 
-38 87 0 
-39 12 29 47 88 0 
-41 82 0 
-39 12 29 47 89 0 
-42 -43 50 82 0 
-37 16 -38 82 0 
-39 12 29 47 -44 8 25 36 49 61 71 79 -43 50 85 0 
-39 12 29 47 -44 8 25 36 49 61 71 79 -43 50 88 0 
-45 -39 12 29 47 82 0 
-46 21 22 26 80 82 0 
-47 12 29 39 82 0 
-48 -49 8 25 36 44 61 71 79 -50 43 90 0 
-51 53 56 62 69 82 0 
-16 37 -52 90 0 
-49 8 25 36 44 61 71 79 82 0 
-11 -28 85 0 
-11 -28 91 0 
-53 51 56 62 69 82 0 
-54 82 0 
-11 -28 87 0 
-55 17 35 76 82 0 
-56 51 53 62 69 -57 82 0 
-58 -59 14 32 40 82 0 
-34 -60 82 0 
-61 8 25 36 44 49 71 79 -62 51 53 56 69 -6 82 0 
-50 43 82 0 
-14 32 40 59 -63 82 0 
-20 82 0 
-64 82 0 
-65 82 0 
-66 82 0 
-67 82 0 
-52 82 0 
-68 -69 51 53 56 62 -70 92 0 
-11 82 0 
-36 8 25 44 49 61 71 79 82 0 
-19 82 0 
-14 32 40 59 82 0 
-71 8 25 36 44 49 61 79 -13 82 0 
-72 33 -73 9 -74 4 82 0 
-23 5 -37 16 -36 8 25 44 49 61 71 79 82 0 
-36 8 25 44 49 61 71 79 -75 2 82 0 
-24 -54 82 0 
-31 -14 32 40 59 82 0 
-76 17 35 55 82 0 
-77 82 0 
-78 82 0 
-79 8 25 36 44 49 61 71 93 0 
-16 37 -80 21 22 26 46 82 0 
-81 86 0 
-72 33 -73 9 82 0 
